n_res = 4;
rc = [ 24, 30, 18, 30 ];
n_tasks = 30;
d = [ 3, 4, 6, 5, 6, 7, 3, 10, 4, 7, 7, 1, 10, 8, 6, 1, 1, 3, 9, 1, 1, 3, 6, 7, 2, 7, 8, 1, 6, 9 ];
rr = [| 4, 0, 8, 0, 8, 1, 2, 2, 9, 1, 7, 9, 0, 4, 6, 0, 0, 4, 7, 0, 0, 7, 1, 10, 8, 9, 1, 9, 0, 4
      | 0, 6, 0, 4, 7, 5, 7, 4, 6, 6, 5, 0, 1, 0, 10, 0, 7, 1, 1, 8, 10, 10, 5, 0, 9, 5, 5, 6, 3, 10
      | 2, 2, 5, 0, 3, 0, 4, 0, 6, 0, 7, 8, 1, 0, 0, 5, 0, 0, 0, 4, 0, 9, 4, 4, 4, 0, 4, 3, 9, 5
      | 10, 9, 1, 7, 2, 1, 1, 4, 4, 2, 10, 8, 0, 1, 0, 8, 10, 2, 1, 3, 6, 6, 6, 6, 2, 0, 6, 2, 0, 6 |];
suc = [ { 2 }, 
        { 3 }, 
        { 4 }, 
        { 5 }, 
        { 6 }, 
        { 7 }, 
        { 8 }, 
        { 9 }, 
        { 10 }, 
        { 11 }, 
        { 12 }, 
        { 13 }, 
        { 14 }, 
        { 15 }, 
        { 16 }, 
        { 17 }, 
        { 18 }, 
        { 19 }, 
        { 20 }, 
        { 21 }, 
        { 22 }, 
        { 23 }, 
        { 24 }, 
        { 25 }, 
        { 26 }, 
        { 27 }, 
        { 28 }, 
        { 29 }, 
        { 30 }, 
        {  }]; 
